&inputpp
outdir = "./"
prefix = "AB"
seedname = "ABC"
write_mmn = .true.
write_amn = .true.
write_unk = .true.
/